Name:		mgval_0.45_4A
Optimal value:	381
#Vehicles:	3
Capacity:	225
Depot Node:	1
#Nodes:		41
#Edges:		26
#Arcs:		69
#Required N:	29
#Required E:	14
#Required A:	37

ReN.	DEMAND	S. COST
N2	22	22
N3	15	15
N4	5	5
N8	5	5
N9	3	3
N10	5	5
N11	14	14
N13	28	28
N14	8	8
N15	24	24
N16	17	17
N17	4	4
N18	14	14
N20	18	18
N21	3	3
N22	12	12
N23	4	4
N24	13	13
N25	5	5
N27	11	11
N29	17	17
N30	19	19
N31	13	13
N33	9	9
N36	9	9
N37	10	10
N39	7	7
N40	4	4
N41	5	5

ReE.	FROM N.	TO N.	T. COST	DEMAND	S. COST
E13	21	22	4	9	9
E14	32	36	10	13	13
E15	34	35	2	4	4
E16	1	2	1	2	2
E17	1	7	5	15	15
E18	17	18	4	7	7
E19	14	23	3	7	7
E20	35	36	8	12	12
E21	5	11	4	8	8
E22	34	38	7	12	12
E23	24	30	8	12	12
E24	23	29	5	14	14
E25	5	6	6	13	13
E26	27	32	3	8	8

EDGE	FROM N.	TO N.	T. COST
NrE1	15	25	9
NrE2	16	19	1
NrE3	21	27	1
NrE4	13	23	7
NrE5	17	20	2
NrE6	2	8	10
NrE7	2	3	1
NrE8	4	5	1
NrE9	20	21	5
NrE10	8	9	2
NrE11	31	35	4
NrE12	23	24	3

ReA.	FROM N.	TO N.	T. COST	DEMAND	S. COST
A33	12	6	3	8	8
A34	10	11	4	3	3
A35	40	39	2	3	3
A36	13	14	8	8	8
A37	10	9	3	3	3
A38	15	14	3	4	4
A39	37	33	2	2	2
A40	12	11	5	5	5
A41	39	38	9	5	5
A42	27	28	7	6	6
A43	32	31	5	5	5
A44	3	9	1	1	1
A45	17	11	2	2	2
A46	14	9	5	5	5
A47	7	8	2	1	1
A48	27	20	5	4	4
A49	11	17	2	2	2
A50	25	24	4	4	4
A51	25	26	6	4	4
A52	26	32	7	13	13
A53	16	11	6	6	6
A54	39	36	3	5	5
A55	26	25	6	5	5
A56	35	39	10	7	7
A57	36	39	3	4	4
A58	9	14	5	5	5
A59	38	39	9	5	5
A60	14	15	3	4	4
A61	30	29	3	6	6
A62	24	25	4	3	3
A63	19	26	8	5	5
A64	28	27	7	7	7
A65	40	36	4	4	4
A66	26	19	8	5	5
A67	31	32	5	4	4
A68	33	37	2	2	2
A69	16	15	3	3	3

ARC	FROM N.	TO N.	T. COST
NrA1	13	7	7
NrA2	3	4	7
NrA3	15	10	1
NrA4	10	4	3
NrA5	11	12	5
NrA6	15	16	3
NrA7	27	26	7
NrA8	30	31	12
NrA9	11	10	4
NrA10	40	41	4
NrA11	8	7	2
NrA12	41	37	5
NrA13	18	22	6
NrA14	37	36	8
NrA15	25	31	7
NrA16	33	27	5
NrA17	20	27	5
NrA18	39	35	10
NrA19	22	28	5
NrA20	37	41	5
NrA21	20	19	3
NrA22	16	17	9
NrA23	11	16	6
NrA24	31	25	7
NrA25	9	10	3
NrA26	36	37	8
NrA27	36	40	4
NrA28	29	34	14
NrA29	4	10	3
NrA30	10	15	1
NrA31	14	13	8
NrA32	24	14	4
